n_res = 4;
rc = [ 36, 23, 26, 31 ];
n_tasks = 60;
d = [ 3, 1, 3, 8, 8, 10, 5, 10, 4, 10, 8, 6, 6, 5, 10, 2, 1, 6, 10, 1, 2, 4, 3, 8, 9, 4, 7, 7, 5, 8, 5, 5, 5, 1, 10, 9, 5, 8, 2, 3, 8, 6, 2, 1, 4, 9, 10, 1, 8, 1, 1, 1, 1, 7, 4, 2, 4, 5, 2, 2 ];
rr = [| 9, 0, 3, 10, 0, 5, 0, 4, 1, 4, 0, 0, 0, 0, 0, 9, 0, 4, 7, 0, 9, 6, 10, 0, 6, 0, 1, 0, 0, 5, 0, 0, 3, 6, 0, 4, 6, 7, 2, 6, 0, 6, 5, 0, 0, 1, 0, 0, 3, 4, 3, 0, 0, 1, 0, 8, 7, 5, 5, 0
      | 1, 0, 5, 4, 2, 0, 6, 8, 0, 0, 0, 4, 6, 7, 0, 0, 0, 0, 0, 6, 6, 0, 9, 0, 0, 10, 0, 7, 5, 0, 3, 3, 0, 0, 0, 7, 0, 8, 2, 1, 2, 6, 0, 3, 0, 0, 0, 3, 6, 0, 0, 7, 0, 10, 0, 0, 4, 0, 0, 0
      | 0, 2, 0, 9, 0, 6, 0, 0, 0, 1, 3, 0, 4, 3, 3, 0, 4, 3, 0, 0, 0, 0, 0, 5, 0, 8, 0, 6, 0, 0, 1, 0, 1, 5, 6, 10, 1, 8, 2, 0, 0, 3, 0, 3, 0, 10, 0, 1, 0, 8, 0, 3, 3, 0, 3, 0, 0, 2, 0, 8
      | 10, 0, 3, 0, 0, 0, 0, 0, 7, 9, 0, 1, 0, 0, 3, 0, 2, 0, 4, 0, 0, 0, 0, 0, 6, 1, 0, 0, 4, 0, 0, 9, 0, 7, 0, 0, 5, 3, 0, 10, 5, 0, 0, 3, 4, 9, 9, 0, 0, 0, 0, 10, 9, 0, 2, 0, 2, 2, 0, 10 |];
suc = [ { 4, 16, 19 },
       { 5, 7, 23 },
       { 9, 15, 20 },
       { 6, 11, 12 },
       { 10 },
       { 13, 17, 28 },
       { 8, 13, 25 },
       { 9, 14, 46 },
       { 10, 26, 56 },
       { 17, 27, 31 },
       { 24, 25 },
       { 22, 44, 54 },
       { 24, 32, 42 },
       { 18, 27, 31 },
       { 21, 39, 42 },
       { 21, 29, 37 },
       { 29, 49, 53 },
       { 38, 47, 52 },
       { 22, 37, 53 },
       { 23, 24, 39 },
       { 26, 40, 46 },
       { 33, 36, 42 },
       { 26, 33, 36 },
       { 31 },
       { 32, 33, 44 },
       { 53 },
       { 28, 49, 55 },
       { 35, 59 },
       { 30, 34, 51 },
       { 38, 45, 50 },
       { 40, 43, 45 },
       { 34, 49, 56 },
       { 41, 57 },
       { 38, 40 },
       { 37 },
       { 41, 47, 58 },
       { 43, 50 },
       { 39, 43 },
       { 55 },
       { 50, 55 },
       { 46 },
       { 45, 48 },
       { 54 },
       { 47, 51 },
       { 57 },
       { 48, 51 },
       { 48 },
       { 56 },
       { 52, 57 },
       { 52 },
       { 60 },
       { 54 },
       { 59 },
       { 58 },
       { 58, 59 },
       { 60 },
       { 60 },
       {  },
       {  },
       {  } ];
